     Program PWSCF v.7.4.1 starts on 16May2025 at 12:30:57

     Waiting for input...
     Reading input from standard input
     Message from routine read_cards :
     DEPRECATED: no units specified in ATOMIC_POSITIONS card
     Message from routine read_cards :
     ATOMIC_POSITIONS: units set to alat

     Current dimensions of program PWSCF are:
     Max number of different atomic species (ntypx) = 10
     Max number of k-points (npk) =  40000
     Max angular momentum in pseudopotentials (lmaxx) =  4
     Message from routine iosys:
     BEWARE:  force calculation with tetrahedra (not recommanded)
     Message from routine iosys:
     BEWARE: stress calculation with tetrahedra (not recommanded)
     [opt_tetra]  Optimized tetrahedron method is used.

     Using Slab Decomposition

     bravais-lattice index     =            2
     lattice parameter (alat)  =      10.5000  a.u.
     unit-cell volume          =     289.4062 (a.u.)^3
     number of atoms/cell      =            2
     number of atomic types    =            1
     number of electrons       =         8.00
     number of Kohn-Sham states=            8
     kinetic-energy cutoff     =      40.0000  Ry
     charge density cutoff     =     160.0000  Ry
     scf convergence threshold =      1.0E-06
     mixing beta               =       0.7000
     number of iterations used =            8  plain     mixing
     energy convergence thresh.=      1.0E-04
     force convergence thresh. =      1.0E-03
     Exchange-correlation= SLA  PW   NOGX NOGC
                           (   1   4   0   0   0   0   0)
     nstep                     =           50

     celldm(1)=  10.500000  celldm(2)=   0.000000  celldm(3)=   0.000000
     celldm(4)=   0.000000  celldm(5)=   0.000000  celldm(6)=   0.000000

     crystal axes: (cart. coord. in units of alat)
               a(1) = (  -0.500000   0.000000   0.500000 )
               a(2) = (   0.000000   0.500000   0.500000 )
               a(3) = (  -0.500000   0.500000   0.000000 )

     reciprocal axes: (cart. coord. in units 2 pi/alat)
               b(1) = ( -1.000000 -1.000000  1.000000 )
               b(2) = (  1.000000  1.000000  1.000000 )
               b(3) = ( -1.000000  1.000000 -1.000000 )

     PseudoPot. # 1 for Si read from file:
     ./pseudo/Si.LDA.upf
     MD5 check sum: 9e2d726316af3d4752eea8ab0afbb951
     Pseudo is Norm-conserving + core correction, Zval =  4.0
     Generated using ONCVPSP code by D. R. Hamann
     Using radial grid of 1510 points,  6 beta functions with:
                l(1) =   0
                l(2) =   0
                l(3) =   1
                l(4) =   1
                l(5) =   2
                l(6) =   2

     atomic species   valence    mass     pseudopotential
     Si                4.00    28.08550     Si( 1.00)

      4 Sym. Ops. (no inversion) found

   Cartesian axes

     site n.     atom                  positions (alat units)
         1        Si     tau(   1) = (   0.2000000   0.0000000   0.0000000  )
         2        Si     tau(   2) = (   0.2500000   0.2500000   0.2500000  )

     number of k points=    18 (tetrahedron method)
                       cart. coord. in units 2pi/alat
        k(    1) = (   0.0000000   0.0000000   0.0000000), wk =   0.0312500
        k(    2) = (  -0.2500000   0.2500000  -0.2500000), wk =   0.1250000
        k(    3) = (   0.5000000  -0.5000000   0.5000000), wk =   0.0625000
        k(    4) = (   0.0000000   0.5000000   0.0000000), wk =   0.1250000
        k(    5) = (   0.7500000  -0.2500000   0.7500000), wk =   0.2500000
        k(    6) = (   0.5000000   0.0000000   0.5000000), wk =   0.2500000
        k(    7) = (   0.0000000  -1.0000000   0.0000000), wk =   0.0625000
        k(    8) = (  -0.5000000  -1.0000000   0.0000000), wk =   0.0625000
        k(    9) = (  -0.2500000   0.2500000   0.2500000), wk =   0.1250000
        k(   10) = (   0.5000000  -0.5000000  -0.5000000), wk =   0.0625000
        k(   11) = (   0.5000000   0.0000000   0.0000000), wk =   0.0625000
        k(   12) = (  -0.2500000   0.7500000  -0.7500000), wk =   0.1250000
        k(   13) = (   0.2500000  -0.7500000  -0.7500000), wk =   0.1250000
        k(   14) = (   0.7500000   0.2500000   0.7500000), wk =   0.2500000
        k(   15) = (   0.0000000   0.5000000  -0.5000000), wk =   0.0625000
        k(   16) = (   0.0000000  -0.5000000  -0.5000000), wk =   0.0625000
        k(   17) = (  -1.0000000   0.0000000   0.0000000), wk =   0.0312500
        k(   18) = (  -1.0000000  -0.5000000   0.0000000), wk =   0.1250000

     Initial potential from superposition of free atoms

     starting charge       7.9989, renormalised to       8.0000
     Starting wfcs are    8 randomized atomic wfcs

     Self-consistent Calculation

     iteration #  1     ecut=    40.00 Ry     beta= 0.70
     Davidson diagonalization with overlap
     ethr =  1.00E-02,  avg # of iterations =  5.6

     Threshold (ethr) on eigenvalues was too large:
     Diagonalizing with lowered threshold

     Davidson diagonalization with overlap
     ethr =  9.94E-04,  avg # of iterations =  1.6

     total energy              =     -16.74093951 Ry
     estimated scf accuracy    <       0.08513855 Ry

[...]

     End of self-consistent calculation

          k = 0.0000 0.0000 0.0000 (  1243 PWs)   bands (ev):

    -6.7654   1.7056   5.4801   6.2356   7.0662   7.8773   9.7268  10.0019

          k =-0.2500 0.2500-0.2500 (  1245 PWs)   bands (ev):

[...]

     the Fermi energy is     5.3707 ev

!    total energy              =     -16.75084329 Ry
     estimated scf accuracy    <          2.9E-10 Ry

     The total energy is the sum of the following terms:
     one-electron contribution =       3.92687408 Ry
     hartree contribution      =       1.31041781 Ry
     xc contribution           =      -6.17409950 Ry
     ewald contribution        =     -15.81403568 Ry

     convergence has been achieved in  20 iterations

     Forces acting on atoms (cartesian axes, Ry/au):

     atom    1 type  1   force =    -0.10833565    0.00000000    0.00000000
     atom    2 type  1   force =     0.10833565    0.00000000    0.00000000

     Total force =     0.153210     Total SCF correction =     0.000005

     Computing stress (Cartesian axis) and pressure

          total   stress  (Ry/bohr**3)                   (kbar)     P=      157.99
  -0.00006312   0.00000000   0.00000000           -9.29        0.00        0.00
   0.00000000   0.00164260   0.00193486            0.00      241.63      284.63
   0.00000000   0.00193486   0.00164260            0.00      284.63      241.63

     BFGS Geometry Optimization
     Energy error            =      2.3E-02 Ry
     Gradient error          =      1.1E-01 Ry/Bohr

     number of scf cycles    =   1
     number of bfgs steps    =   0

     energy             new  =     -16.7508432937 Ry

     new trust radius        =       0.1083356463 bohr
     new conv_thr            =       0.0000010000 Ry

ATOMIC_POSITIONS (alat)
Si               0.1896823194        0.0000000000        0.0000000000
Si               0.2603176806        0.2500000000        0.2500000000

     Writing config-only to output data dir ./tmp/force_relax.save/ :
     XML data file
     NEW-OLD atomic charge density approx. for the potential

[...]

     Energy error            =      2.7E-02 Ry
     Gradient error          =      1.4E-01 Ry/Bohr

[...]

     energy             old  =     -16.7508432937 Ry
     energy             new  =     -16.7777919987 Ry

     CASE: energy            _new < energy            _old

     WARNING: bfgs curvature condition failed, Theta= 0.625
     uphill step: resetting bfgs history

[...]

     WARNING: bfgs curvature condition failed, Theta= 0.657
     uphill step: resetting bfgs history

[...]

     WARNING: bfgs curvature condition failed, Theta= 0.759
     new trust radius        =       0.1811476035 bohr
     new conv_thr            =       0.0000010000 Ry

[...]

     WARNING: bfgs curvature condition failed, Theta= 0.786
     new trust radius        =       0.2717214053 bohr
     new conv_thr            =       0.0000010000 Ry

[...]

     number of scf cycles    =   8
     number of bfgs steps    =   7

     energy             old  =     -17.0240383894 Ry
     energy             new  =     -17.0305979881 Ry

     CASE: energy            _new < energy            _old

     new trust radius        =       0.0029444069 bohr
     new conv_thr            =       0.0000000141 Ry

ATOMIC_POSITIONS (alat)
Si               0.1000277107       -0.0000000000       -0.0000000000
Si               0.3499722893        0.2500000000        0.2500000000

     Writing config-only to output data dir ./tmp/force_relax.save/ :
     XML data file
     NEW-OLD atomic charge density approx. for the potential

     Self-consistent Calculation

[...]

     Threshold (ethr) on eigenvalues was too large:
     Diagonalizing with lowered threshold

     Davidson diagonalization with overlap
     ethr =  3.52E-09,  avg # of iterations =  3.6

[...]

     total energy              =     -17.03060329 Ry
     estimated scf accuracy    <       0.00000002 Ry

     iteration #  3     ecut=    40.00 Ry     beta= 0.70
     Davidson diagonalization with overlap
     ethr =  2.50E-10,  avg # of iterations =  1.1

     End of self-consistent calculation

[...]

          k = 0.0000-0.5000-0.5000 (  1243 PWs)   bands (ev):

[...]

          k =-1.0000-0.5000 0.0000 (  1232 PWs)   bands (ev):

    -2.0912  -2.0897   1.7753   1.7762   9.5550   9.5566  10.0459  10.0461

     the Fermi energy is     5.8665 ev

!    total energy              =     -17.03060329 Ry
     estimated scf accuracy    <          1.1E-10 Ry

     The total energy is the sum of the following terms:
     one-electron contribution =       4.33864140 Ry
     hartree contribution      =       1.17769675 Ry
     xc contribution           =      -6.13003316 Ry
     ewald contribution        =     -16.41690828 Ry

     convergence has been achieved in   3 iterations

     Forces acting on atoms (cartesian axes, Ry/au):

     atom    1 type  1   force =    -0.00015222    0.00000000    0.00000000
     atom    2 type  1   force =     0.00015222    0.00000000    0.00000000

     Total force =     0.000215     Total SCF correction =     0.000000

     Computing stress (Cartesian axis) and pressure

          total   stress  (Ry/bohr**3)                   (kbar)     P=      -66.74
  -0.00045365  -0.00000000   0.00000000          -66.73       -0.00        0.00
  -0.00000000  -0.00045367   0.00000047           -0.00      -66.74        0.07
   0.00000000   0.00000047  -0.00045367            0.00        0.07      -66.74

     Energy error            =      5.3E-06 Ry
     Gradient error          =      1.5E-04 Ry/Bohr

     bfgs converged in   9 scf cycles and   8 bfgs steps
     (criteria: energy <  1.0E-04 Ry, force <  1.0E-03 Ry/Bohr)

     End of BFGS Geometry Optimization

     Final energy             =     -17.0306032914 Ry

     File ./tmp/force_relax.bfgs deleted, as requested
Begin final coordinates

ATOMIC_POSITIONS (alat)
Si               0.1000277107       -0.0000000000       -0.0000000000
Si               0.3499722893        0.2500000000        0.2500000000
End final coordinates

     Writing all to output data dir ./tmp/force_relax.save/ :
     XML data file, charge density, pseudopotentials, collected wavefunctions

     General routines

   This run was terminated on:  12:31:27  16May2025

   JOB DONE.