     Program PWSCF v.7.4.1 starts on 16May2025 at 12:32:56

     Waiting for input...
     Reading input from standard input
     Message from routine read_cards :
     DEPRECATED: no units specified in ATOMIC_POSITIONS card
     Message from routine read_cards :
     ATOMIC_POSITIONS: units set to alat

     Current dimensions of program PWSCF are:
     Max number of different atomic species (ntypx) = 10
     Max number of k-points (npk) =  40000
     Max angular momentum in pseudopotentials (lmaxx) =  4
     Message from routine iosys:
     BEWARE:  force calculation with tetrahedra (not recommanded)
     Message from routine iosys:
     BEWARE: stress calculation with tetrahedra (not recommanded)
     [opt_tetra]  Optimized tetrahedron method is used.

     Using Slab Decomposition

     bravais-lattice index     =            2
     lattice parameter (alat)  =      11.0000  a.u.
     unit-cell volume          =     332.7500 (a.u.)^3
     number of atoms/cell      =            2
     number of atomic types    =            1
     number of electrons       =         8.00
     number of Kohn-Sham states=            8
     kinetic-energy cutoff     =      40.0000  Ry
     charge density cutoff     =     160.0000  Ry
     scf convergence threshold =      1.0E-06
     mixing beta               =       0.7000
     number of iterations used =            8  plain     mixing
     energy convergence thresh.=      1.0E-04
     force convergence thresh. =      1.0E-03
     press convergence thresh. =      5.0E-01
     Exchange-correlation= SLA  PW   NOGX NOGC
                           (   1   4   0   0   0   0   0)
     nstep                     =           50

     celldm(1)=  11.000000  celldm(2)=   0.000000  celldm(3)=   0.000000
     celldm(4)=   0.000000  celldm(5)=   0.000000  celldm(6)=   0.000000

     crystal axes: (cart. coord. in units of alat)
               a(1) = (  -0.500000   0.000000   0.500000 )
               a(2) = (   0.000000   0.500000   0.500000 )
               a(3) = (  -0.500000   0.500000   0.000000 )

     reciprocal axes: (cart. coord. in units 2 pi/alat)
               b(1) = ( -1.000000 -1.000000  1.000000 )
               b(2) = (  1.000000  1.000000  1.000000 )
               b(3) = ( -1.000000  1.000000 -1.000000 )

     PseudoPot. # 1 for Si read from file:
     ./pseudo/Si.LDA.upf
     MD5 check sum: 9e2d726316af3d4752eea8ab0afbb951
     Pseudo is Norm-conserving + core correction, Zval =  4.0
     Generated using ONCVPSP code by D. R. Hamann
     Using radial grid of 1510 points,  6 beta functions with:
                l(1) =   0
                l(2) =   0
                l(3) =   1
                l(4) =   1
                l(5) =   2
                l(6) =   2

     atomic species   valence    mass     pseudopotential
     Si                4.00    28.08550     Si( 1.00)

     48 Sym. Ops., with inversion, found (24 have fractional translation)

   Cartesian axes

     site n.     atom                  positions (alat units)
         1        Si     tau(   1) = (   0.0000000   0.0000000   0.0000000  )
         2        Si     tau(   2) = (   0.2500000   0.2500000   0.2500000  )

     number of k points=     8 (tetrahedron method)
                       cart. coord. in units 2pi/alat
        k(    1) = (   0.0000000   0.0000000   0.0000000), wk =   0.0312500
        k(    2) = (  -0.2500000   0.2500000  -0.2500000), wk =   0.2500000
        k(    3) = (   0.5000000  -0.5000000   0.5000000), wk =   0.1250000
        k(    4) = (   0.0000000   0.5000000   0.0000000), wk =   0.1875000
        k(    5) = (   0.7500000  -0.2500000   0.7500000), wk =   0.7500000
        k(    6) = (   0.5000000   0.0000000   0.5000000), wk =   0.3750000
        k(    7) = (   0.0000000  -1.0000000   0.0000000), wk =   0.0937500
        k(    8) = (  -0.5000000  -1.0000000   0.0000000), wk =   0.1875000

     Initial potential from superposition of free atoms

     starting charge       7.9989, renormalised to       8.0000
     Starting wfcs are    8 randomized atomic wfcs

     Self-consistent Calculation

     iteration #  1     ecut=    40.00 Ry     beta= 0.70
     Davidson diagonalization with overlap
     ethr =  1.00E-02,  avg # of iterations =  3.9

     Threshold (ethr) on eigenvalues was too large:
     Diagonalizing with lowered threshold

     Davidson diagonalization with overlap
     ethr =  5.25E-04,  avg # of iterations =  2.0

     total energy              =     -16.99836652 Ry
     estimated scf accuracy    <       0.04522659 Ry

[...]

     End of self-consistent calculation

          k = 0.0000 0.0000 0.0000 (  1411 PWs)   bands (ev):

    -6.5670   4.1105   4.1105   4.1105   5.0993   6.5057   6.5057   6.5057

          k =-0.2500 0.2500-0.2500 (  1405 PWs)   bands (ev):

[...]

     the Fermi energy is     4.7063 ev

!    total energy              =     -16.99983786 Ry
     estimated scf accuracy    <       0.00000013 Ry

     The total energy is the sum of the following terms:
     one-electron contribution =       3.35079189 Ry
     hartree contribution      =       1.30369966 Ry
     xc contribution           =      -5.98364415 Ry
     ewald contribution        =     -15.67068525 Ry

     convergence has been achieved in   4 iterations

     Forces acting on atoms (cartesian axes, Ry/au):

     atom    1 type  1   force =     0.00000000    0.00000000   -0.00000000
     atom    2 type  1   force =     0.00000000    0.00000000    0.00000000

     Total force =     0.000000     Total SCF correction =     0.000000

     Computing stress (Cartesian axis) and pressure

          total   stress  (Ry/bohr**3)                   (kbar)     P=     -132.16
  -0.00089838   0.00000000   0.00000000         -132.16        0.00        0.00
   0.00000000  -0.00089838  -0.00000000            0.00     -132.16       -0.00
   0.00000000  -0.00000000  -0.00089838            0.00       -0.00     -132.16

     BFGS Geometry Optimization
     Energy error            =      2.0E-02 Ry
     Gradient error          =      5.1E-34 Ry/Bohr
     Cell gradient error     =      1.3E+02 kbar

     number of scf cycles    =   1
     number of bfgs steps    =   0

     enthalpy           new  =     -16.9998378590 Ry

     new trust radius        =       0.0819388546 bohr
     new conv_thr            =       0.0000010000 Ry

     new unit-cell volume =    310.82954 a.u.^3 (    46.06019 Ang^3 )
     density =      2.02505 g/cm^3

CELL_PARAMETERS (alat= 11.00000000)
  -0.488770230  -0.000000000   0.488770230
   0.000000000   0.488770230   0.488770230
  -0.488770230   0.488770230  -0.000000000

ATOMIC_POSITIONS (alat)
Si               0.0000000000        0.0000000000       -0.0000000000
Si               0.2443851149        0.2443851149        0.2443851149

     Writing config-only to output data dir ./tmp/vcrelax.save/ :
     XML data file
     NEW-OLD atomic charge density approx. for the potential
     New effective cutoffs (rho, wfc):  166.62   41.83

[...]

     Energy error            =      1.8E-02 Ry
     Gradient error          =      6.7E-32 Ry/Bohr
     Cell gradient error     =      1.1E+02 kbar

[...]

     enthalpy           old  =     -16.9998378590 Ry
     enthalpy           new  =     -17.0177749808 Ry

     CASE: enthalpy          _new < enthalpy          _old

[...]

     number of scf cycles    =   5
     number of bfgs steps    =   4

     enthalpy           old  =     -17.0359929951 Ry
     enthalpy           new  =     -17.0361857102 Ry

     CASE: enthalpy          _new < enthalpy          _old

     new trust radius        =       0.0012839674 bohr
     new conv_thr            =       0.0000000100 Ry

     new unit-cell volume =    266.53281 a.u.^3 (    39.49609 Ang^3 )
     density =      2.36160 g/cm^3

[...]

ATOMIC_POSITIONS (alat)
Si              -0.0000000000       -0.0000000000       -0.0000000000
Si               0.2321761197        0.2321761197        0.2321761197

     Writing config-only to output data dir ./tmp/vcrelax.save/ :
     XML data file
     NEW-OLD atomic charge density approx. for the potential
     New effective cutoffs (rho, wfc):  184.60   46.34

[...]

     Threshold (ethr) on eigenvalues was too large:
     Diagonalizing with lowered threshold

     Davidson diagonalization with overlap
     ethr =  1.16E-09,  avg # of iterations =  4.0

[...]

     Energy error            =      1.3E-06 Ry
     Gradient error          =      2.3E-31 Ry/Bohr
     Cell gradient error     =      4.2E-02 kbar

     bfgs converged in   6 scf cycles and   5 bfgs steps
     (criteria: energy <  1.0E-04 Ry, force <  1.0E-03 Ry/Bohr, cell <  5.0E-01 kbar)

     End of BFGS Geometry Optimization

     Final enthalpy           =     -17.0361870230 Ry

     File ./tmp/vcrelax.bfgs deleted, as requested
Begin final coordinates
     new unit-cell volume =    266.53281 a.u.^3 (    39.49609 Ang^3 )
     density =      2.36160 g/cm^3

CELL_PARAMETERS (alat= 11.00000000)
  -0.464352239  -0.000000000   0.464352239
   0.000000000   0.464352239   0.464352239
  -0.464352239   0.464352239  -0.000000000

ATOMIC_POSITIONS (alat)
Si              -0.0000000000       -0.0000000000       -0.0000000000
Si               0.2321761197        0.2321761197        0.2321761197
End final coordinates

     Writing config-only to output data dir ./tmp/vcrelax.save/ :
     XML data file

     Final scf calculation at the relaxed structure.
     The G-vectors are recalculated for the final unit cell
     Results may differ from those at the preceding step.

     Using Slab Decomposition

     bravais-lattice index     =            2
     lattice parameter (alat)  =      11.0000  a.u.
     unit-cell volume          =     266.5328 (a.u.)^3
     number of atoms/cell      =            2
     number of atomic types    =            1
     number of electrons       =         8.00
     number of Kohn-Sham states=            8
     kinetic-energy cutoff     =      40.0000  Ry
     charge density cutoff     =     160.0000  Ry
     scf convergence threshold =      1.0E-08
     mixing beta               =       0.7000
     number of iterations used =            8  plain     mixing
     press convergence thresh. =      5.0E-01
     Exchange-correlation= SLA  PW   NOGX NOGC
                           (   1   4   0   0   0   0   0)

     celldm(1)=  11.000000  celldm(2)=   0.000000  celldm(3)=   0.000000
     celldm(4)=   0.000000  celldm(5)=   0.000000  celldm(6)=   0.000000

     crystal axes: (cart. coord. in units of alat)
               a(1) = (  -0.464352  -0.000000   0.464352 )
               a(2) = (   0.000000   0.464352   0.464352 )
               a(3) = (  -0.464352   0.464352  -0.000000 )

     reciprocal axes: (cart. coord. in units 2 pi/alat)
               b(1) = ( -1.076769 -1.076769  1.076769 )
               b(2) = (  1.076769  1.076769  1.076769 )
               b(3) = ( -1.076769  1.076769 -1.076769 )

     PseudoPot. # 1 for Si read from file:
     ./pseudo/Si.LDA.upf
     MD5 check sum: 9e2d726316af3d4752eea8ab0afbb951
     Pseudo is Norm-conserving + core correction, Zval =  4.0
     Generated using ONCVPSP code by D. R. Hamann
     Using radial grid of 1510 points,  6 beta functions with:
                l(1) =   0
                l(2) =   0
                l(3) =   1
                l(4) =   1
                l(5) =   2
                l(6) =   2

     atomic species   valence    mass     pseudopotential
     Si                4.00    28.08550     Si( 1.00)

     48 Sym. Ops., with inversion, found (24 have fractional translation)

   Cartesian axes

     site n.     atom                  positions (alat units)
         1        Si     tau(   1) = (  -0.0000000  -0.0000000  -0.0000000  )
         2        Si     tau(   2) = (   0.2321761   0.2321761   0.2321761  )

     number of k points=     8 (tetrahedron method)
                       cart. coord. in units 2pi/alat
        k(    1) = (   0.0000000   0.0000000   0.0000000), wk =   0.0312500
        k(    2) = (  -0.2691922   0.2691922  -0.2691922), wk =   0.2500000
        k(    3) = (   0.5383844  -0.5383844   0.5383844), wk =   0.1250000
        k(    4) = (   0.0000000   0.5383844   0.0000000), wk =   0.1875000
        k(    5) = (   0.8075766  -0.2691922   0.8075766), wk =   0.7500000
        k(    6) = (   0.5383844   0.0000000   0.5383844), wk =   0.3750000
        k(    7) = (   0.0000000  -1.0767688   0.0000000), wk =   0.0937500
        k(    8) = (  -0.5383844  -1.0767688   0.0000000), wk =   0.1875000

     Initial potential from superposition of free atoms

     starting charge       7.9989, renormalised to       8.0000
     Starting wfcs are    8 randomized atomic wfcs

     Self-consistent Calculation

[...]

     total energy              =     -17.03618064 Ry
     estimated scf accuracy    <       0.00000008 Ry

     iteration #  6     ecut=    40.00 Ry     beta= 0.70
     Davidson diagonalization with overlap
     ethr =  9.60E-10,  avg # of iterations =  2.2

     End of self-consistent calculation

[...]

          k = 0.0000-1.0768 0.0000 (  1138 PWs)   bands (ev):

[...]

          k =-0.5384-1.0768 0.0000 (  1144 PWs)   bands (ev):

    -1.4752  -1.4752   2.2733   2.2733  10.3979  10.3979  11.1813  11.1813

     the Fermi energy is     6.6183 ev

!    total energy              =     -17.03618067 Ry
     estimated scf accuracy    <          2.4E-09 Ry

     The total energy is the sum of the following terms:
     one-electron contribution =       4.95346868 Ry
     hartree contribution      =       1.10725953 Ry
     xc contribution           =      -6.22320404 Ry
     ewald contribution        =     -16.87370483 Ry

     convergence has been achieved in   6 iterations

     Forces acting on atoms (cartesian axes, Ry/au):

     atom    1 type  1   force =    -0.00000000   -0.00000000    0.00000000
     atom    2 type  1   force =     0.00000000    0.00000000   -0.00000000

     Total force =     0.000000     Total SCF correction =     0.000000

     Computing stress (Cartesian axis) and pressure

          total   stress  (Ry/bohr**3)                   (kbar)     P=       -0.07
  -0.00000051   0.00000000   0.00000000           -0.07        0.00        0.00
   0.00000000  -0.00000051  -0.00000000            0.00       -0.07       -0.00
   0.00000000  -0.00000000  -0.00000051            0.00       -0.00       -0.07

     Writing all to output data dir ./tmp/vcrelax.save/ :
     XML data file, charge density, pseudopotentials, collected wavefunctions

     General routines

   This run was terminated on:  12:33: 2  16May2025

   JOB DONE.